(set-logic QF_UF)
(declare-fun A0 () Bool)
(declare-fun A1 () Bool)
(declare-fun A2 () Bool)
(declare-fun A3 () Bool)
(declare-fun A4 () Bool)
(declare-fun A5 () Bool)
(declare-fun A6 () Bool)
(declare-fun A7 () Bool)
(declare-fun A8 () Bool)
(declare-fun A9 () Bool)
(declare-fun A10 () Bool)
(declare-fun A11 () Bool)
(declare-fun A12 () Bool)
(declare-fun A13 () Bool)
(declare-fun A14 () Bool)
(declare-fun A15 () Bool)
(declare-fun A16 () Bool)
(declare-fun A17 () Bool)
(declare-fun A18 () Bool)
(declare-fun A19 () Bool)
(declare-fun A20 () Bool)
(declare-fun A21 () Bool)
(declare-fun A22 () Bool)
(declare-fun A23 () Bool)
(declare-fun A24 () Bool)
(assert (let ((.def_0 (not A10))) (let ((.def_1 (and .def_0 A23))) (let ((.def_2 (and A5 A7))) (let ((.def_3 (and .def_2 .def_1))) (let ((.def_4 (not .def_3))) (let ((.def_5 (not A15))) (let ((.def_6 (or A24 .def_5))) (let ((.def_7 (not A12))) (let ((.def_8 (not A22))) (let ((.def_9 (or .def_8 .def_7))) (let ((.def_10 (or .def_9 .def_6))) (let ((.def_11 (not .def_10))) (let ((.def_12 (or .def_11 .def_4))) (let ((.def_13 (not .def_12))) (let ((.def_14 (not A9))) (let ((.def_15 (or .def_14 A22))) (let ((.def_16 (not .def_15))) (let ((.def_17 (not A11))) (let ((.def_18 (and .def_17 A3))) (let ((.def_19 (not .def_18))) (let ((.def_20 (or .def_19 .def_16))) (let ((.def_21 (and A24 A22))) (let ((.def_22 (not .def_21))) (let ((.def_23 (not A24))) (let ((.def_24 (or .def_23 A17))) (let ((.def_25 (and .def_24 .def_22))) (let ((.def_26 (not .def_25))) (let ((.def_27 (and .def_26 .def_20))) (let ((.def_28 (not .def_27))) (let ((.def_29 (and .def_28 .def_13))) (let ((.def_30 (not .def_29))) (let ((.def_31 (and A24 A13))) (let ((.def_32 (not A0))) (let ((.def_33 (or .def_32 A21))) (let ((.def_34 (or .def_33 .def_31))) (let ((.def_35 (not .def_34))) (let ((.def_36 (not A6))) (let ((.def_37 (or .def_36 A18))) (let ((.def_38 (not .def_37))) (let ((.def_39 (and A20 A23))) (let ((.def_40 (and .def_39 .def_38))) (let ((.def_41 (or .def_40 .def_35))) (let ((.def_42 (not .def_41))) (let ((.def_43 (not A1))) (let ((.def_44 (= .def_43 A23))) (let ((.def_45 (not A16))) (let ((.def_46 (and .def_45 A8))) (let ((.def_47 (and .def_46 .def_44))) (let ((.def_48 (not A2))) (let ((.def_49 (or A5 .def_48))) (let ((.def_50 (not A18))) (let ((.def_51 (not A14))) (let ((.def_52 (or .def_51 .def_50))) (let ((.def_53 (not .def_52))) (let ((.def_54 (and .def_53 .def_49))) (let ((.def_55 (or .def_54 .def_47))) (let ((.def_56 (not .def_55))) (let ((.def_57 (or .def_56 .def_42))) (let ((.def_58 (not .def_57))) (let ((.def_59 (or .def_58 .def_30))) (let ((.def_60 (not .def_59))) (let ((.def_61 (and A23 A20))) (let ((.def_62 (not A8))) (let ((.def_63 (or .def_62 .def_43))) (let ((.def_64 (not .def_63))) (let ((.def_65 (= .def_64 .def_61))) (let ((.def_66 (not .def_65))) (let ((.def_67 (and A2 A18))) (let ((.def_68 (not .def_67))) (let ((.def_69 (not A23))) (let ((.def_70 (or .def_69 .def_62))) (let ((.def_71 (and .def_70 .def_68))) (let ((.def_72 (not .def_71))) (let ((.def_73 (= .def_72 .def_66))) (let ((.def_74 (not .def_73))) (let ((.def_75 (= .def_50 A6))) (let ((.def_76 (or A11 .def_45))) (let ((.def_77 (not .def_76))) (let ((.def_78 (and .def_77 .def_75))) (let ((.def_79 (and A21 .def_48))) (let ((.def_80 (and A2 A21))) (let ((.def_81 (or .def_80 .def_79))) (let ((.def_82 (and .def_81 .def_78))) (let ((.def_83 (and .def_82 .def_74))) (let ((.def_84 (and A1 .def_8))) (let ((.def_85 (not .def_84))) (let ((.def_86 (and A24 A5))) (let ((.def_87 (and .def_86 .def_85))) (let ((.def_88 (or A23 .def_51))) (let ((.def_89 (not A7))) (let ((.def_90 (and .def_48 .def_89))) (let ((.def_91 (and .def_90 .def_88))) (let ((.def_92 (and .def_91 .def_87))) (let ((.def_93 (not .def_92))) (let ((.def_94 (or .def_32 A10))) (let ((.def_95 (not A3))) (let ((.def_96 (and .def_95 .def_0))) (let ((.def_97 (not .def_96))) (let ((.def_98 (and .def_97 .def_94))) (let ((.def_99 (= .def_62 A1))) (let ((.def_100 (not .def_99))) (let ((.def_101 (= .def_89 A22))) (let ((.def_102 (and .def_101 .def_100))) (let ((.def_103 (not .def_102))) (let ((.def_104 (or .def_103 .def_98))) (let ((.def_105 (and .def_104 .def_93))) (let ((.def_106 (and .def_105 .def_83))) (let ((.def_107 (not .def_106))) (let ((.def_108 (or .def_107 .def_60))) (let ((.def_109 (not .def_108))) (let ((.def_110 (not A19))) (let ((.def_111 (and .def_110 .def_89))) (let ((.def_112 (and A0 A11))) (let ((.def_113 (not .def_112))) (let ((.def_114 (or .def_113 .def_111))) (let ((.def_115 (and A9 A1))) (let ((.def_116 (not .def_115))) (let ((.def_117 (or A10 A5))) (let ((.def_118 (not .def_117))) (let ((.def_119 (= .def_118 .def_116))) (let ((.def_120 (and .def_119 .def_114))) (let ((.def_121 (or .def_5 A11))) (let ((.def_122 (or .def_69 .def_95))) (let ((.def_123 (not .def_122))) (let ((.def_124 (and .def_123 .def_121))) (let ((.def_125 (not .def_124))) (let ((.def_126 (and A10 A10))) (let ((.def_127 (and .def_23 A12))) (let ((.def_128 (and .def_127 .def_126))) (let ((.def_129 (or .def_128 .def_125))) (let ((.def_130 (not .def_129))) (let ((.def_131 (or .def_130 .def_120))) (let ((.def_132 (or A13 .def_0))) (let ((.def_133 (not A13))) (let ((.def_134 (= .def_133 .def_50))) (let ((.def_135 (not .def_134))) (let ((.def_136 (and .def_135 .def_132))) (let ((.def_137 (not .def_136))) (let ((.def_138 (and A16 .def_36))) (let ((.def_139 (and A1 A5))) (let ((.def_140 (not .def_139))) (let ((.def_141 (= .def_140 .def_138))) (let ((.def_142 (not .def_141))) (let ((.def_143 (= .def_142 .def_137))) (let ((.def_144 (not .def_143))) (let ((.def_145 (not A5))) (let ((.def_146 (or .def_145 .def_17))) (let ((.def_147 (and .def_89 .def_43))) (let ((.def_148 (not .def_147))) (let ((.def_149 (and .def_148 .def_146))) (let ((.def_150 (not A17))) (let ((.def_151 (or .def_150 .def_7))) (let ((.def_152 (and A24 .def_69))) (let ((.def_153 (and .def_152 .def_151))) (let ((.def_154 (not .def_153))) (let ((.def_155 (or .def_154 .def_149))) (let ((.def_156 (or .def_155 .def_144))) (let ((.def_157 (not .def_156))) (let ((.def_158 (or .def_157 .def_131))) (let ((.def_159 (or A5 A3))) (let ((.def_160 (not .def_159))) (let ((.def_161 (and A10 A5))) (let ((.def_162 (and .def_161 .def_160))) (let ((.def_163 (not A4))) (let ((.def_164 (and .def_14 .def_163))) (let ((.def_165 (and A9 A2))) (let ((.def_166 (or .def_165 .def_164))) (let ((.def_167 (or .def_166 .def_162))) (let ((.def_168 (or .def_145 A19))) (let ((.def_169 (and A3 .def_23))) (let ((.def_170 (not .def_169))) (let ((.def_171 (and .def_170 .def_168))) (let ((.def_172 (or .def_7 A9))) (let ((.def_173 (not .def_172))) (let ((.def_174 (or .def_69 A15))) (let ((.def_175 (or .def_174 .def_173))) (let ((.def_176 (or .def_175 .def_171))) (let ((.def_177 (or .def_176 .def_167))) (let ((.def_178 (not .def_177))) (let ((.def_179 (= .def_7 A9))) (let ((.def_180 (not .def_179))) (let ((.def_181 (and A24 .def_23))) (let ((.def_182 (or .def_181 .def_180))) (let ((.def_183 (not .def_182))) (let ((.def_184 (and A15 A4))) (let ((.def_185 (not .def_184))) (let ((.def_186 (and .def_145 .def_45))) (let ((.def_187 (not .def_186))) (let ((.def_188 (and .def_187 .def_185))) (let ((.def_189 (or .def_188 .def_183))) (let ((.def_190 (not .def_189))) (let ((.def_191 (and A14 A11))) (let ((.def_192 (not .def_191))) (let ((.def_193 (or .def_50 A23))) (let ((.def_194 (or .def_193 .def_192))) (let ((.def_195 (not .def_194))) (let ((.def_196 (= .def_43 A24))) (let ((.def_197 (and A23 A24))) (let ((.def_198 (or .def_197 .def_196))) (let ((.def_199 (and .def_198 .def_195))) (let ((.def_200 (or .def_199 .def_190))) (let ((.def_201 (and .def_200 .def_178))) (let ((.def_202 (not .def_201))) (let ((.def_203 (or .def_202 .def_158))) (let ((.def_204 (and .def_203 .def_109))) (let ((.def_205 (not .def_204))) (let ((.def_206 (or A16 A6))) (let ((.def_207 (not .def_206))) (let ((.def_208 (and A22 .def_89))) (let ((.def_209 (and .def_208 .def_207))) (let ((.def_210 (and A14 A1))) (let ((.def_211 (or .def_110 .def_5))) (let ((.def_212 (or .def_211 .def_210))) (let ((.def_213 (not .def_212))) (let ((.def_214 (or .def_213 .def_209))) (let ((.def_215 (or .def_36 A14))) (let ((.def_216 (and .def_89 .def_163))) (let ((.def_217 (not .def_216))) (let ((.def_218 (or .def_217 .def_215))) (let ((.def_219 (and .def_8 .def_133))) (let ((.def_220 (or A10 A13))) (let ((.def_221 (not .def_220))) (let ((.def_222 (or .def_221 .def_219))) (let ((.def_223 (not .def_222))) (let ((.def_224 (and .def_223 .def_218))) (let ((.def_225 (and .def_224 .def_214))) (let ((.def_226 (and A2 A23))) (let ((.def_227 (not .def_226))) (let ((.def_228 (and A7 A19))) (let ((.def_229 (or .def_228 .def_227))) (let ((.def_230 (not .def_229))) (let ((.def_231 (= .def_95 A11))) (let ((.def_232 (and A17 .def_69))) (let ((.def_233 (or .def_232 .def_231))) (let ((.def_234 (and .def_233 .def_230))) (let ((.def_235 (not A21))) (let ((.def_236 (and .def_163 .def_235))) (let ((.def_237 (and .def_69 A15))) (let ((.def_238 (and .def_237 .def_236))) (let ((.def_239 (and .def_48 A17))) (let ((.def_240 (or .def_235 .def_5))) (let ((.def_241 (and .def_240 .def_239))) (let ((.def_242 (and .def_241 .def_238))) (let ((.def_243 (not .def_242))) (let ((.def_244 (or .def_243 .def_234))) (let ((.def_245 (not .def_244))) (let ((.def_246 (or .def_245 .def_225))) (let ((.def_247 (and .def_14 A11))) (let ((.def_248 (or A16 .def_133))) (let ((.def_249 (or .def_248 .def_247))) (let ((.def_250 (not .def_249))) (let ((.def_251 (and A13 .def_95))) (let ((.def_252 (or .def_5 .def_32))) (let ((.def_253 (or .def_252 .def_251))) (let ((.def_254 (or .def_253 .def_250))) (let ((.def_255 (not A20))) (let ((.def_256 (and .def_17 .def_255))) (let ((.def_257 (and A19 .def_163))) (let ((.def_258 (not .def_257))) (let ((.def_259 (and .def_258 .def_256))) (let ((.def_260 (not .def_259))) (let ((.def_261 (or .def_17 .def_69))) (let ((.def_262 (not .def_261))) (let ((.def_263 (or A3 A12))) (let ((.def_264 (not .def_263))) (let ((.def_265 (or .def_264 .def_262))) (let ((.def_266 (and .def_265 .def_260))) (let ((.def_267 (not .def_266))) (let ((.def_268 (or .def_267 .def_254))) (let ((.def_269 (not .def_268))) (let ((.def_270 (or .def_0 .def_133))) (let ((.def_271 (not .def_270))) (let ((.def_272 (or .def_51 A14))) (let ((.def_273 (or .def_272 .def_271))) (let ((.def_274 (not .def_273))) (let ((.def_275 (or A7 A4))) (let ((.def_276 (= A4 A9))) (let ((.def_277 (or .def_276 .def_275))) (let ((.def_278 (or .def_277 .def_274))) (let ((.def_279 (not .def_278))) (let ((.def_280 (and A21 A19))) (let ((.def_281 (or A21 A24))) (let ((.def_282 (and .def_281 .def_280))) (let ((.def_283 (not .def_282))) (let ((.def_284 (= A22 .def_62))) (let ((.def_285 (not .def_284))) (let ((.def_286 (and A24 A21))) (let ((.def_287 (= .def_286 .def_285))) (let ((.def_288 (not .def_287))) (let ((.def_289 (= .def_288 .def_283))) (let ((.def_290 (or .def_289 .def_279))) (let ((.def_291 (or .def_290 .def_269))) (let ((.def_292 (= .def_291 .def_246))) (let ((.def_293 (not .def_292))) (let ((.def_294 (and .def_7 A8))) (let ((.def_295 (not .def_294))) (let ((.def_296 (and .def_235 .def_89))) (let ((.def_297 (not .def_296))) (let ((.def_298 (= .def_297 .def_295))) (let ((.def_299 (not .def_298))) (let ((.def_300 (or .def_145 A3))) (let ((.def_301 (not .def_300))) (let ((.def_302 (and .def_0 A13))) (let ((.def_303 (not .def_302))) (let ((.def_304 (= .def_303 .def_301))) (let ((.def_305 (not .def_304))) (let ((.def_306 (or .def_305 .def_299))) (let ((.def_307 (not .def_306))) (let ((.def_308 (= A7 A19))) (let ((.def_309 (and A9 .def_150))) (let ((.def_310 (not .def_309))) (let ((.def_311 (or .def_310 .def_308))) (let ((.def_312 (or .def_163 .def_255))) (let ((.def_313 (and .def_36 A13))) (let ((.def_314 (not .def_313))) (let ((.def_315 (and .def_314 .def_312))) (let ((.def_316 (not .def_315))) (let ((.def_317 (or .def_316 .def_311))) (let ((.def_318 (not .def_317))) (let ((.def_319 (or .def_318 .def_307))) (let ((.def_320 (not .def_319))) (let ((.def_321 (and .def_255 A6))) (let ((.def_322 (or A11 .def_145))) (let ((.def_323 (not .def_322))) (let ((.def_324 (= .def_323 .def_321))) (let ((.def_325 (and A6 A2))) (let ((.def_326 (or A6 .def_48))) (let ((.def_327 (and .def_326 .def_325))) (let ((.def_328 (not .def_327))) (let ((.def_329 (or .def_328 .def_324))) (let ((.def_330 (not .def_329))) (let ((.def_331 (and A17 .def_255))) (let ((.def_332 (and .def_255 .def_150))) (let ((.def_333 (not .def_332))) (let ((.def_334 (or .def_333 .def_331))) (let ((.def_335 (or A20 A22))) (let ((.def_336 (or .def_62 A13))) (let ((.def_337 (and .def_336 .def_335))) (let ((.def_338 (or .def_337 .def_334))) (let ((.def_339 (not .def_338))) (let ((.def_340 (= .def_339 .def_330))) (let ((.def_341 (not .def_340))) (let ((.def_342 (and .def_341 .def_320))) (let ((.def_343 (not .def_342))) (let ((.def_344 (and .def_48 A24))) (let ((.def_345 (or A6 .def_32))) (let ((.def_346 (not .def_345))) (let ((.def_347 (and .def_346 .def_344))) (let ((.def_348 (not .def_347))) (let ((.def_349 (and A3 .def_110))) (let ((.def_350 (or A21 A16))) (let ((.def_351 (or .def_350 .def_349))) (let ((.def_352 (not .def_351))) (let ((.def_353 (and .def_352 .def_348))) (let ((.def_354 (not .def_353))) (let ((.def_355 (or .def_145 .def_255))) (let ((.def_356 (not .def_355))) (let ((.def_357 (and .def_48 A22))) (let ((.def_358 (and .def_357 .def_356))) (let ((.def_359 (not .def_358))) (let ((.def_360 (and A6 .def_32))) (let ((.def_361 (and A8 .def_32))) (let ((.def_362 (and .def_361 .def_360))) (let ((.def_363 (not .def_362))) (let ((.def_364 (or .def_363 .def_359))) (let ((.def_365 (and .def_364 .def_354))) (let ((.def_366 (or A21 .def_17))) (let ((.def_367 (not .def_366))) (let ((.def_368 (or .def_367 .def_2))) (let ((.def_369 (not .def_368))) (let ((.def_370 (= A3 .def_17))) (let ((.def_371 (or A18 .def_62))) (let ((.def_372 (and .def_371 .def_370))) (let ((.def_373 (not .def_372))) (let ((.def_374 (and .def_373 .def_369))) (let ((.def_375 (not .def_374))) (let ((.def_376 (and .def_43 .def_133))) (let ((.def_377 (not .def_376))) (let ((.def_378 (or A6 A1))) (let ((.def_379 (not .def_378))) (let ((.def_380 (or .def_379 .def_377))) (let ((.def_381 (or A14 .def_48))) (let ((.def_382 (and A13 .def_133))) (let ((.def_383 (= .def_382 .def_381))) (let ((.def_384 (not .def_383))) (let ((.def_385 (or .def_384 .def_380))) (let ((.def_386 (not .def_385))) (let ((.def_387 (or .def_386 .def_375))) (let ((.def_388 (not .def_387))) (let ((.def_389 (or .def_388 .def_365))) (let ((.def_390 (or .def_389 .def_343))) (let ((.def_391 (or .def_390 .def_293))) (let ((.def_392 (and .def_391 .def_205))) (let ((.def_393 (not .def_392))) .def_393)))))))))))))))))))))))))))))))))))))))))))))))))))))))))))))))))))))))))))))))))))))))))))))))))))))))))))))))))))))))))))))))))))))))))))))))))))))))))))))))))))))))))))))))))))))))))))))))))))))))))))))))))))))))))))))))))))))))))))))))))))))))))))))))))))))))))))))))))))))))))))))))))))))))))))))))))))))))))))))))))))))))))))))))))))))))))))))))))))))))))))))))))))))))))))))))))))))))))))
(check-sat)
